\ENCODING=ISO-8859-1
\Problem name: bSARP

Maximize
 obj1: 27.0009187324152 x(0,2,0) + 31.0009187324152 x(0,5,0)
       + 71.0005239842112 x(1,5,0) + 28.0005357074528 x(2,5,0)
       + 67.0001172274892 x(3,5,0) - 10.0000449998988 x(4,0,0)
       - 5.00008999919001 x(4,1,0) - 22.0002272715534 x(4,2,0)
       - 5.00008999919001 x(4,3,0)
Subject To
 Constraint1_0:   x(0,2,0) + x(0,5,0) + x(1,5,0)  = 1
 Constraint1_1:   x(2,5,0) + x(3,5,0)  = 1
 Constraint2_0:   x(4,0,0) + x(4,1,0)  = 1
 Constraint2_1:   x(0,2,0) + x(4,2,0) + x(4,3,0)  = 1
 Constraint3_0:   x(4,0,0) + x(4,1,0) + x(4,2,0) + x(4,3,0)  = 1
 Constraint4_0:   x(0,5,0) + x(1,5,0) + x(2,5,0) + x(3,5,0)  = 1
 Constraint5_2:   x(1,5,0) + x(3,5,0) <= 1
 Constraint6_0_0: x(0,2,0) + x(0,5,0) - x(4,0,0)  = 0
 Constraint6_1_0: x(1,5,0) - x(4,1,0)  = 0
 Constraint6_2_0: - x(0,2,0) + x(2,5,0) - x(4,2,0)  = 0
 Constraint6_3_0: x(3,5,0) - x(4,3,0)  = 0
Bounds
 0 <= x(0,2,0) <= 1
 0 <= x(0,5,0) <= 1
 0 <= x(1,5,0) <= 1
 0 <= x(2,5,0) <= 1
 0 <= x(3,5,0) <= 1
 0 <= x(4,0,0) <= 1
 0 <= x(4,1,0) <= 1
 0 <= x(4,2,0) <= 1
 0 <= x(4,3,0) <= 1
Binaries
 x(0,2,0)  x(0,5,0)  x(1,5,0)  x(2,5,0)  x(3,5,0)  x(4,0,0)  x(4,1,0) 
 x(4,2,0)  x(4,3,0) 
End
